     Program PWSCF v.7.3.1 starts on 15Apr2025 at 15:54:50

     Waiting for input...
     Reading input from standard input
Warning: card &CELL     !SAME AS NON SOC ignored
Warning: card   CELL_DYNAMICS = 'BFGS' ignored
Warning: card   PRESS = 0.0 ignored
Warning: card   PRESS_CONV_THR = 0.5 ignored
Warning: card / ignored

     Current dimensions of program PWSCF are:
     Max number of different atomic species (ntypx) = 10
     Max number of k-points (npk) =  40000
     Max angular momentum in pseudopotentials (lmaxx) =  4
     file Cs.rel-pbe-spn-rrkjus_psl.1.0.0.UPF: wavefunction(s)  5S 6S renormalized
     file Pb.rel-pbe-dn-rrkjus_psl.0.2.2.UPF: wavefunction(s)  6S 5D renormalized
     file Cl.rel-pbe-n-rrkjus_psl.0.1.UPF: wavefunction(s)  3S renormalized
     Message from routine setup:
     using ibrav=0 with symmetry is DISCOURAGED, use correct ibrav instead

     R & G space division:  proc/nbgrp/npool/nimage =      40
     Subspace diagonalization in iterative solution of the eigenvalue problem:
     one sub-group per band group will be used

     Using Slab Decomposition

     bravais-lattice index     =            0
     lattice parameter (alat)  =      21.5463  a.u.
     unit-cell volume          =    4948.0504 (a.u.)^3
     number of atoms/cell      =           20
     number of atomic types    =            3
     number of electrons       =       176.00
     number of Kohn-Sham states=          220
     kinetic-energy cutoff     =      44.0000  Ry
     charge density cutoff     =     352.0000  Ry
     scf convergence threshold =      1.0E-06
     mixing beta               =       0.1000
     number of iterations used =           12  local-TF  mixing
     Exchange-correlation= PBE
                           (   1   4   3   4   0   0   0)
     Non magnetic calculation with spin-orbit

     celldm(1)=  21.546279  celldm(2)=   0.000000  celldm(3)=   0.000000
     celldm(4)=   0.000000  celldm(5)=   0.000000  celldm(6)=   0.000000

     crystal axes: (cart. coord. in units of alat)
               a(1) = (   0.499223   0.499585   0.495288 )
               a(2) = (  -0.500958   0.500854   0.493260 )
               a(3) = (  -0.500688  -0.496619   0.496371 )

     reciprocal axes: (cart. coord. in units 2 pi/alat)
               b(1) = (  0.997775  0.003419  1.009876 )
               b(2) = ( -0.998538  1.002249 -0.004472 )
               b(3) = ( -0.003319 -0.999380  1.011395 )

     PseudoPot. # 1 for Cs read from file:
     ./pseudo/Cs.rel-pbe-spn-rrkjus_psl.1.0.0.UPF
     MD5 check sum: 92f45d5fced885c1284380ec35df8368
     Pseudo is Ultrasoft + core correction, Zval =  9.0
     Generated using &quot;atomic&quot; code by A. Dal Corso  v.6.4.1
     Using radial grid of 1251 points, 15 beta functions with:
                l(1) =   0
                l(2) =   0
                l(3) =   0
                l(4) =   1
                l(5) =   1
                l(6) =   1
                l(7) =   1
                l(8) =   2
                l(9) =   2
               l(10) =   2
               l(11) =   2
               l(12) =   3
               l(13) =   3
               l(14) =   3
               l(15) =   3
     Q(r) pseudized with 0 coefficients

     PseudoPot. # 2 for Pb read from file:
     ./pseudo/Pb.rel-pbe-dn-rrkjus_psl.0.2.2.UPF
     MD5 check sum: 9c73912f9d8c3ac16a0fd4e5e9b2d9d5
     Pseudo is Ultrasoft + core correction, Zval = 14.0
     Generated using "atomic" code by A. Dal Corso  v.5.0.2 svn rev. 9415
     Using radial grid of 1281 points, 10 beta functions with:
                l(1) =   0
                l(2) =   0
                l(3) =   1
                l(4) =   1
                l(5) =   1
                l(6) =   1
                l(7) =   2
                l(8) =   2
                l(9) =   2
               l(10) =   2
     Q(r) pseudized with 0 coefficients

     PseudoPot. # 3 for Cl read from file:
     ./pseudo/Cl.rel-pbe-n-rrkjus_psl.0.1.UPF
     MD5 check sum: d6929d25f2e302c671c5179b82bfa032
     Pseudo is Ultrasoft + core correction, Zval =  7.0
     Generated using "atomic" code by A. Dal Corso  v.5.0.2 svn rev. 9415
     Using radial grid of 1157 points,  6 beta functions with:
                l(1) =   0
                l(2) =   0
                l(3) =   1
                l(4) =   1
                l(5) =   1
                l(6) =   1
     Q(r) pseudized with 0 coefficients

     atomic species   valence    mass     pseudopotential
     Cs                9.00   132.91000     Cs( 1.00)
     Pb               14.00   207.20000     Pb( 1.00)
     Cl                7.00    35.45300     Cl( 1.00)

      2 Sym. Ops., with inversion, found

                                    s                        frac. trans.

      isym =  1     identity

 cryst.   s( 1) = (     1          0          0      )
                  (     0          1          0      )
                  (     0          0          1      )

 cart.    s( 1) = (  1.0000000  0.0000000  0.0000000 )
                  ( -0.0000000  1.0000000  0.0000000 )
                  ( -0.0000000  0.0000000  1.0000000 )

      isym =  2     inversion

 cryst.   s( 2) = (    -1          0          0      )
                  (     0         -1          0      )
                  (     0          0         -1      )

 cart.    s( 2) = ( -1.0000000  0.0000000  0.0000000 )
                  (  0.0000000 -1.0000000  0.0000000 )
                  (  0.0000000  0.0000000 -1.0000000 )

   Cartesian axes

     site n.     atom                  positions (alat units)
         1        Cs     tau(   1) = (   0.0000000   0.0000000   0.0000000  )
         2        Cs     tau(   2) = (  -0.0008674   0.5002192   0.4942738  )
         3        Cs     tau(   3) = (  -0.0007325   0.0014827   0.4958292  )
         4        Cs     tau(   4) = (  -0.5008232   0.0021172   0.4948153  )
         5        Pb     tau(   5) = (   0.2496116   0.2497924   0.2476439  )
         6        Pb     tau(   6) = (  -0.2512116   0.2519096   0.7424591  )
         7        Pb     tau(   7) = (  -0.2504791   0.2504269   0.2466299  )
         8        Pb     tau(   8) = (  -0.7513023   0.2525441   0.7414452  )
         9        Cl     tau(   9) = (  -0.7460504   0.0031520   0.7861946  )
        10        Cl     tau(  10) = (  -0.2857851  -0.2103271   0.4958436  )
        11        Cl     tau(  11) = (  -0.0004590   0.2377990   0.2836844  )
        12        Cl     tau(  12) = (  -0.5019642   0.2660201   1.2012338  )
        13        Cl     tau(  13) = (  -0.2457561   0.5010164   0.6985657  )
        14        Cl     tau(  14) = (  -0.5013051   0.2643097   0.7786620  )
        15        Cl     tau(  15) = (  -0.2566671   0.0028027   0.7863526  )
        16        Cl     tau(  16) = (  -0.2166380   0.7141462   0.9890747  )
        17        Cl     tau(  17) = (  -0.0011181   0.2395094   0.7062563  )
        18        Cl     tau(  18) = (  -0.2202299   0.2918306   0.9903876  )
        19        Cl     tau(  19) = (   0.2436273   0.5006671   0.6987236  )
        20        Cl     tau(  20) = (  -0.2821933   0.2119885   0.4945307  )

   Crystallographic axes

     site n.     atom                  positions (cryst. coord.)
         1        Cs     tau(   1) = (  0.0000000  0.0000000  0.0000000  )
         2        Cs     tau(   2) = (  0.5000000  0.5000000 -0.0000000  )
         3        Cs     tau(   3) = (  0.5000000  0.0000000  0.5000000  )
         4        Cs     tau(   4) = (  0.0000000  0.5000000  0.5000000  )
         5        Pb     tau(   5) = (  0.5000000  0.0000000  0.0000000  )
         6        Pb     tau(   6) = (  0.5000000  0.5000000  0.5000000  )
         7        Pb     tau(   7) = (  0.0000000  0.5000000  0.0000000  )
         8        Pb     tau(   8) = (  0.0000000  1.0000000  0.5000000  )
         9        Cl     tau(   9) = (  0.0495788  0.7446028  0.7944794  )
        10        Cl     tau(  10) = (  0.2148718  0.0723496  0.7126391  )
        11        Cl     tau(  11) = (  0.2868411  0.2375235  0.0492671  )
        12        Cl     tau(  12) = (  0.7131589  0.7624765  0.9507329  )
        13        Cl     tau(  13) = (  0.4619682  0.7444159  0.2066358  )
        14        Cl     tau(  14) = (  0.2870657  0.7619940  0.5250529  )
        15        Cl     tau(  15) = (  0.5380318  0.2555841  0.7933642  )
        16        Cl     tau(  16) = (  0.7851282  0.9276504  0.2873609  )
        17        Cl     tau(  17) = (  0.7129343  0.2380060  0.4749471  )
        18        Cl     tau(  18) = (  0.7814262  0.5079656  0.7107546  )
        19        Cl     tau(  19) = (  0.9504212  0.2553972  0.2055206  )
        20        Cl     tau(  20) = (  0.2185738  0.4920344  0.2892454  )

     number of k points=   260
                       cart. coord. in units 2pi/alat
        k(    1) = (   0.0000000   0.0000000   0.0000000), wk =   0.0019531
        k(    2) = (  -0.0004148  -0.1249225   0.1264244), wk =   0.0039062
        k(    3) = (  -0.0008297  -0.2498450   0.2528488), wk =   0.0039062
        k(    4) = (  -0.0012445  -0.3747675   0.3792732), wk =   0.0039062
        k(    5) = (   0.0016593   0.4996900  -0.5056976), wk =   0.0019531
        k(    6) = (  -0.1248172   0.1252812  -0.0005590), wk =   0.0039062
        k(    7) = (  -0.1252321   0.0003587   0.1258654), wk =   0.0039062
        k(    8) = (  -0.1256469  -0.1245638   0.2522898), wk =   0.0039062
        k(    9) = (  -0.1260617  -0.2494863   0.3787142), wk =   0.0039062
        k(   10) = (  -0.1231579   0.6249711  -0.5062567), wk =   0.0039062
        k(   11) = (  -0.1235728   0.5000486  -0.3798323), wk =   0.0039062
        k(   12) = (  -0.1239876   0.3751261  -0.2534079), wk =   0.0039062
        k(   13) = (  -0.1244024   0.2502036  -0.1269834), wk =   0.0039062
        k(   14) = (  -0.2496345   0.2505623  -0.0011181), wk =   0.0039062
        k(   15) = (  -0.2500493   0.1256398   0.1253064), wk =   0.0039062
        k(   16) = (  -0.2504642   0.0007173   0.2517308), wk =   0.0039062
        k(   17) = (  -0.2508790  -0.1242052   0.3781552), wk =   0.0039062
        k(   18) = (  -0.2479752   0.7502523  -0.5068157), wk =   0.0039062
        k(   19) = (  -0.2483900   0.6253298  -0.3803913), wk =   0.0039062
        k(   20) = (  -0.2488048   0.5004073  -0.2539669), wk =   0.0039062
        k(   21) = (  -0.2492197   0.3754848  -0.1275425), wk =   0.0039062
        k(   22) = (  -0.3744517   0.3758435  -0.0016771), wk =   0.0039062
        k(   23) = (  -0.3748666   0.2509210   0.1247473), wk =   0.0039062
        k(   24) = (  -0.3752814   0.1259985   0.2511717), wk =   0.0039062
        k(   25) = (  -0.3756962   0.0010760   0.3775961), wk =   0.0039062
        k(   26) = (  -0.3727924   0.8755334  -0.5073747), wk =   0.0039062
        k(   27) = (  -0.3732073   0.7506109  -0.3809503), wk =   0.0039062
        k(   28) = (  -0.3736221   0.6256884  -0.2545259), wk =   0.0039062
        k(   29) = (  -0.3740369   0.5007659  -0.1281015), wk =   0.0039062
        k(   30) = (   0.4992690  -0.5011246   0.0022361), wk =   0.0019531
        k(   31) = (   0.4988542  -0.6260471   0.1286605), wk =   0.0039062
[...]
        k(   36) = (   0.1250000   0.0000000   0.1250000), wk =   0.0039062
        k(   37) = (   0.1250000   0.0000000   0.2500000), wk =   0.0039062
        k(   38) = (   0.1250000   0.0000000   0.3750000), wk =   0.0039062
        k(   39) = (   0.1250000   0.0000000  -0.5000000), wk =   0.0039062
        k(   40) = (   0.1250000  -0.0000000  -0.3750000), wk =   0.0039062
        k(   41) = (   0.1250000   0.0000000  -0.2500000), wk =   0.0039062
        k(   42) = (   0.1250000  -0.0000000  -0.1250000), wk =   0.0039062
        k(   43) = (   0.1250000   0.1250000   0.0000000), wk =   0.0039062
        k(   44) = (   0.1250000   0.1250000   0.1250000), wk =   0.0039062
        k(   45) = (   0.1250000   0.1250000   0.2500000), wk =   0.0039062
        k(   46) = (   0.1250000   0.1250000   0.3750000), wk =   0.0039062
        k(   47) = (   0.1250000   0.1250000  -0.5000000), wk =   0.0039062
        k(   48) = (   0.1250000   0.1250000  -0.3750000), wk =   0.0039062
        k(   49) = (   0.1250000   0.1250000  -0.2500000), wk =   0.0039062
        k(   50) = (   0.1250000   0.1250000  -0.1250000), wk =   0.0039062
        k(   51) = (   0.1250000   0.2500000   0.0000000), wk =   0.0039062
        k(   52) = (   0.1250000   0.2500000   0.1250000), wk =   0.0039062
        k(   53) = (   0.1250000   0.2500000   0.2500000), wk =   0.0039062
        k(   54) = (   0.1250000   0.2500000   0.3750000), wk =   0.0039062
        k(   55) = (   0.1250000   0.2500000  -0.5000000), wk =   0.0039062
        k(   56) = (   0.1250000   0.2500000  -0.3750000), wk =   0.0039062
        k(   57) = (   0.1250000   0.2500000  -0.2500000), wk =   0.0039062
        k(   58) = (   0.1250000   0.2500000  -0.1250000), wk =   0.0039062
        k(   59) = (   0.1250000   0.3750000  -0.0000000), wk =   0.0039062
        k(   60) = (   0.1250000   0.3750000   0.1250000), wk =   0.0039062
[...]
        k(  246) = (  -0.5000000   0.2500000  -0.2500000), wk =   0.0039062
        k(  247) = (  -0.5000000   0.2500000  -0.1250000), wk =   0.0039062
        k(  248) = (  -0.5000000   0.3750000  -0.0000000), wk =   0.0039062
        k(  249) = (  -0.5000000   0.3750000   0.1250000), wk =   0.0039062
        k(  250) = (  -0.5000000   0.3750000   0.2500000), wk =   0.0039062
        k(  251) = (  -0.5000000   0.3750000   0.3750000), wk =   0.0039062
        k(  252) = (  -0.5000000   0.3750000  -0.5000000), wk =   0.0039062
        k(  253) = (  -0.5000000   0.3750000  -0.3750000), wk =   0.0039062
        k(  254) = (  -0.5000000   0.3750000  -0.2500000), wk =   0.0039062
        k(  255) = (  -0.5000000   0.3750000  -0.1250000), wk =   0.0039062
        k(  256) = (  -0.5000000  -0.5000000   0.0000000), wk =   0.0019531
        k(  257) = (  -0.5000000  -0.5000000   0.1250000), wk =   0.0039062
        k(  258) = (  -0.5000000  -0.5000000   0.2500000), wk =   0.0039062
        k(  259) = (  -0.5000000  -0.5000000   0.3750000), wk =   0.0039062
        k(  260) = (  -0.5000000  -0.5000000  -0.5000000), wk =   0.0019531

     Check: negative core charge=   -0.000002

     Initial potential from superposition of free atoms

     starting charge     175.8372, renormalised to     176.0000
     Starting wfcs are  208 randomized atomic wfcs +   12 random wfcs

     Self-consistent Calculation

     iteration #  1     ecut=    44.00 Ry     beta= 0.10
     Davidson diagonalization with overlap

     ethr =  1.00E-02,  avg # of iterations =  6.6

     Threshold (ethr) on eigenvalues was too large:
     Diagonalizing with lowered threshold

     Davidson diagonalization with overlap

[...]

     total energy              =   -1215.90667740 Ry
     estimated scf accuracy    <       1.23829956 Ry

[...]

     c_bands:  5 eigenvalues not converged
     c_bands:  3 eigenvalues not converged
     c_bands:  1 eigenvalues not converged
     c_bands:  1 eigenvalues not converged
     c_bands:  1 eigenvalues not converged
     c_bands:  1 eigenvalues not converged
     c_bands:  2 eigenvalues not converged
     c_bands:  2 eigenvalues not converged
     c_bands:  2 eigenvalues not converged
     c_bands:  2 eigenvalues not converged
     c_bands:  3 eigenvalues not converged
     c_bands:  1 eigenvalues not converged
     c_bands:  1 eigenvalues not converged
     c_bands:  1 eigenvalues not converged
     c_bands:  4 eigenvalues not converged
     c_bands:  4 eigenvalues not converged
     c_bands:  1 eigenvalues not converged
     c_bands:  2 eigenvalues not converged
     c_bands:  1 eigenvalues not converged
     c_bands:  1 eigenvalues not converged
     c_bands:  4 eigenvalues not converged
     c_bands:  3 eigenvalues not converged
     c_bands:  1 eigenvalues not converged
     c_bands:  1 eigenvalues not converged
     c_bands:  4 eigenvalues not converged
     c_bands:  2 eigenvalues not converged
     c_bands:  1 eigenvalues not converged
     c_bands:  1 eigenvalues not converged
     c_bands:  4 eigenvalues not converged
     c_bands:  2 eigenvalues not converged
     c_bands:  3 eigenvalues not converged
     c_bands:  1 eigenvalues not converged
     c_bands:  3 eigenvalues not converged
     c_bands:  2 eigenvalues not converged
     c_bands:  1 eigenvalues not converged
     c_bands:  3 eigenvalues not converged
     c_bands:  3 eigenvalues not converged
     c_bands:  3 eigenvalues not converged
     c_bands:  1 eigenvalues not converged
     c_bands:  1 eigenvalues not converged
     c_bands:  3 eigenvalues not converged
     c_bands:  2 eigenvalues not converged
     c_bands:  1 eigenvalues not converged
     c_bands:  1 eigenvalues not converged
     c_bands:  1 eigenvalues not converged
     c_bands:  5 eigenvalues not converged
     c_bands:  2 eigenvalues not converged
     c_bands:  1 eigenvalues not converged
     c_bands:  1 eigenvalues not converged
     c_bands:  1 eigenvalues not converged
     c_bands:  2 eigenvalues not converged
     c_bands:  2 eigenvalues not converged
     c_bands:  2 eigenvalues not converged
     c_bands:  1 eigenvalues not converged
     c_bands:  1 eigenvalues not converged
     c_bands:  3 eigenvalues not converged
     c_bands:  2 eigenvalues not converged
     c_bands:  2 eigenvalues not converged
     c_bands:  1 eigenvalues not converged
     c_bands:  5 eigenvalues not converged
[...]
     c_bands:  1 eigenvalues not converged
     c_bands:  1 eigenvalues not converged
     c_bands:  1 eigenvalues not converged
     c_bands:  3 eigenvalues not converged
     c_bands:  1 eigenvalues not converged
     c_bands:  2 eigenvalues not converged
     c_bands:  1 eigenvalues not converged
     c_bands:  1 eigenvalues not converged
     c_bands:  4 eigenvalues not converged
     c_bands:  2 eigenvalues not converged
     c_bands:  1 eigenvalues not converged
     c_bands:  3 eigenvalues not converged
     c_bands:  1 eigenvalues not converged
     c_bands:  2 eigenvalues not converged
     c_bands:  2 eigenvalues not converged
     ethr =  4.86E-05,  avg # of iterations = 18.9

[...]

     ethr =  4.26E-08,  avg # of iterations =  2.4

[...]

     total energy              =   -1215.55711458 Ry
     estimated scf accuracy    <       0.00000255 Ry

     iteration # 17     ecut=    44.00 Ry     beta= 0.10
     Davidson diagonalization with overlap

     c_bands:  1 eigenvalues not converged
     ethr =  1.45E-09,  avg # of iterations =  2.1

     End of self-consistent calculation

          k = 0.0000 0.0000 0.0000 ( 24407 PWs)   bands (ev):

   -17.4931 -17.4931 -17.3800 -17.3800 -17.3064 -17.3064 -17.2705 -17.2705
   -14.5194 -14.5194 -14.5187 -14.5187 -14.5134 -14.5134 -14.5120 -14.5120
   -14.5099 -14.5099 -14.4998 -14.4998 -14.4985 -14.4985 -14.4957 -14.4957
   -12.0901 -12.0901 -12.0886 -12.0886 -12.0576 -12.0576 -12.0543 -12.0543
   -12.0519 -12.0519 -11.9438 -11.9438 -11.9424 -11.9424 -11.9412 -11.9412
   -11.9149 -11.9149 -11.9138 -11.9138 -11.9096 -11.9096 -11.9080 -11.9080
   -11.2074 -11.2074 -10.9021 -10.9021 -10.9004 -10.9004 -10.8887 -10.8887
   -10.8839 -10.8839 -10.8807 -10.8807 -10.8764 -10.8764 -10.7507 -10.7507
   -10.7465 -10.7465 -10.7422 -10.7422 -10.5152 -10.5152 -10.5139 -10.5139
    -5.4473  -5.4473  -5.3439  -5.3439  -5.2870  -5.2870  -5.2411  -5.2411
    -4.4800  -4.4800  -4.4733  -4.4733  -4.4630  -4.4630  -3.8464  -3.8464
    -3.8254  -3.8254  -3.7500  -3.7500  -3.7320  -3.7320  -3.7047  -3.7047
    -3.6851  -3.6851  -3.6401  -3.6401  -3.6348  -3.6348  -3.1740  -3.1740
    -0.8868  -0.8868  -0.5585  -0.5585  -0.5380  -0.5380  -0.5068  -0.5068
    -0.4603  -0.4603  -0.4307  -0.4307   0.4624   0.4624   0.4683   0.4683
     0.4755   0.4755   0.8691   0.8691   0.8995   0.8995   0.9135   0.9135
     0.9339   0.9339   0.9443   0.9443   0.9485   0.9485   0.9689   0.9689
     0.9821   0.9821   0.9962   0.9962   1.0053   1.0053   1.0110   1.0110
     1.0204   1.0204   1.0831   1.0831   1.1133   1.1133   1.1523   1.1523
     1.1837   1.1837   1.2089   1.2089   1.2256   1.2256   1.2717   1.2717
     1.3565   1.3565   1.3602   1.3602   1.4527   1.4527   1.4797   1.4797
     1.5120   1.5120   2.4895   2.4895   2.5006   2.5006   2.5109   2.5109
     5.1360   5.1360   5.1817   5.1817   5.2397   5.2397   6.5188   6.5188
     6.5205   6.5205   6.5624   6.5624   7.2856   7.2856   7.6778   7.6778
     8.2095   8.2095   8.2842   8.2842   8.3685   8.3685   8.4288   8.4288
     8.4650   8.4650   8.9318   8.9318   9.0316   9.0317   9.0406   9.0407
     9.0584   9.0585   9.1344   9.1346   9.1548   9.1549   9.1867   9.1867
     9.3780   9.3780   9.5263   9.7094

     occupation numbers
     1.0000   1.0000   1.0000   1.0000   1.0000   1.0000   1.0000   1.0000
     1.0000   1.0000   1.0000   1.0000   1.0000   1.0000   1.0000   1.0000
     1.0000   1.0000   1.0000   1.0000   1.0000   1.0000   1.0000   1.0000
     1.0000   1.0000   1.0000   1.0000   1.0000   1.0000   1.0000   1.0000
     1.0000   1.0000   1.0000   1.0000   1.0000   1.0000   1.0000   1.0000
     1.0000   1.0000   1.0000   1.0000   1.0000   1.0000   1.0000   1.0000
     1.0000   1.0000   1.0000   1.0000   1.0000   1.0000   1.0000   1.0000
     1.0000   1.0000   1.0000   1.0000   1.0000   1.0000   1.0000   1.0000
     1.0000   1.0000   1.0000   1.0000   1.0000   1.0000   1.0000   1.0000
     1.0000   1.0000   1.0000   1.0000   1.0000   1.0000   1.0000   1.0000
     1.0000   1.0000   1.0000   1.0000   1.0000   1.0000   1.0000   1.0000
     1.0000   1.0000   1.0000   1.0000   1.0000   1.0000   1.0000   1.0000
     1.0000   1.0000   1.0000   1.0000   1.0000   1.0000   1.0000   1.0000
     1.0000   1.0000   1.0000   1.0000   1.0000   1.0000   1.0000   1.0000
     1.0000   1.0000   1.0000   1.0000   1.0000   1.0000   1.0000   1.0000
     1.0000   1.0000   1.0000   1.0000   1.0000   1.0000   1.0000   1.0000
     1.0000   1.0000   1.0000   1.0000   1.0000   1.0000   1.0000   1.0000
     1.0000   1.0000   1.0000   1.0000   1.0000   1.0000   1.0000   1.0000
     1.0000   1.0000   1.0000   1.0000   1.0000   1.0000   1.0000   1.0000
     1.0000   1.0000   1.0000   1.0000   1.0000   1.0000   1.0000   1.0000
     1.0000   1.0000   1.0000   1.0000   1.0000   1.0000   1.0000   1.0000
     1.0000   1.0000   1.0000   1.0000   1.0000   1.0000   1.0000   1.0000
     0.0000   0.0000   0.0000   0.0000   0.0000   0.0000   0.0000   0.0000
     0.0000   0.0000   0.0000   0.0000   0.0000   0.0000   0.0000   0.0000
     0.0000   0.0000   0.0000   0.0000   0.0000   0.0000   0.0000   0.0000
     0.0000   0.0000   0.0000   0.0000   0.0000   0.0000   0.0000   0.0000
     0.0000   0.0000   0.0000   0.0000   0.0000   0.0000   0.0000   0.0000
     0.0000   0.0000   0.0000   0.0000

          k =-0.0004-0.1249 0.1264 ( 24424 PWs)   bands (ev):

[...]

          k =-0.0009-0.8776-0.1234 ( 24340 PWs)   bands (ev):

[...]

          k = 0.0020-0.0031-1.0084 ( 24366 PWs)   bands (ev):

   -17.4931 -17.4931 -17.3800 -17.3800 -17.3064 -17.3064 -17.2705 -17.2705
   -14.5205 -14.5205 -14.5186 -14.5186 -14.5170 -14.5170 -14.5074 -14.5074
   -14.5053 -14.5053 -14.5036 -14.5036 -14.4982 -14.4982 -14.4970 -14.4970
   -12.0912 -12.0912 -12.0897 -12.0897 -12.0877 -12.0877 -12.0119 -12.0119
   -12.0100 -12.0100 -12.0076 -12.0076 -11.9428 -11.9428 -11.9423 -11.9423
   -11.9151 -11.9151 -11.9137 -11.9137 -11.9095 -11.9095 -11.9081 -11.9081
   -10.9902 -10.9902 -10.9883 -10.9883 -10.9804 -10.9804 -10.8929 -10.8929
   -10.8894 -10.8894 -10.8825 -10.8825 -10.8745 -10.8745 -10.8728 -10.8728
   -10.8687 -10.8687 -10.5210 -10.5210 -10.5179 -10.5179 -10.5094 -10.5094
    -5.4492  -5.4492  -5.3451  -5.3451  -5.2877  -5.2877  -5.2385  -5.2385
    -5.0074  -5.0074  -3.9242  -3.9242  -3.9150  -3.9150  -3.8934  -3.8934
    -3.8403  -3.8403  -3.8249  -3.8249  -3.7414  -3.7414  -3.7361  -3.7361
    -3.6731  -3.6731  -3.6452  -3.6452  -3.6319  -3.6319  -3.6137  -3.6137
    -0.7383  -0.7383  -0.7236  -0.7236  -0.6838  -0.6838  -0.5117  -0.5117
    -0.4833  -0.4833  -0.4637  -0.4637   0.5610   0.5610   0.5934   0.5934
     0.6292   0.6292   0.7198   0.7198   0.7365   0.7365   0.7425   0.7425
     0.9844   0.9844   1.0011   1.0011   1.0031   1.0031   1.0468   1.0468
     1.0545   1.0545   1.0661   1.0661   1.0793   1.0793   1.0938   1.0938
     1.1099   1.1099   1.1130   1.1130   1.1435   1.1435   1.1790   1.1790
     1.1818   1.1818   1.1950   1.1950   1.2019   1.2019   1.2081   1.2081
     1.2428   1.2428   1.4669   1.4669   1.4948   1.4948   1.5321   1.5321
     1.8129   1.8129   1.8766   1.8766   1.9070   1.9070   3.1557   3.1557
     4.4145   4.4145   5.7874   5.7874   5.8927   5.8927   5.9828   5.9828
     6.1603   6.1603   6.1882   6.1882   8.0667   8.0667   8.1113   8.1113
     8.1308   8.1308   8.4994   8.4994   8.6206   8.6206   8.7381   8.7381
     8.7762   8.7762   8.8327   8.8330   8.8605   8.8606   8.9385   8.9385
     9.1384   9.1384   9.2280   9.2281   9.3294   9.3295   9.4073   9.4074
     9.4677   9.4679   9.5293   9.5296

     occupation numbers
     1.0000   1.0000   1.0000   1.0000   1.0000   1.0000   1.0000   1.0000
     1.0000   1.0000   1.0000   1.0000   1.0000   1.0000   1.0000   1.0000
     1.0000   1.0000   1.0000   1.0000   1.0000   1.0000   1.0000   1.0000
     1.0000   1.0000   1.0000   1.0000   1.0000   1.0000   1.0000   1.0000
     1.0000   1.0000   1.0000   1.0000   1.0000   1.0000   1.0000   1.0000
     1.0000   1.0000   1.0000   1.0000   1.0000   1.0000   1.0000   1.0000
     1.0000   1.0000   1.0000   1.0000   1.0000   1.0000   1.0000   1.0000
     1.0000   1.0000   1.0000   1.0000   1.0000   1.0000   1.0000   1.0000
     1.0000   1.0000   1.0000   1.0000   1.0000   1.0000   1.0000   1.0000
     1.0000   1.0000   1.0000   1.0000   1.0000   1.0000   1.0000   1.0000
     1.0000   1.0000   1.0000   1.0000   1.0000   1.0000   1.0000   1.0000
     1.0000   1.0000   1.0000   1.0000   1.0000   1.0000   1.0000   1.0000
     1.0000   1.0000   1.0000   1.0000   1.0000   1.0000   1.0000   1.0000
     1.0000   1.0000   1.0000   1.0000   1.0000   1.0000   1.0000   1.0000
     1.0000   1.0000   1.0000   1.0000   1.0000   1.0000   1.0000   1.0000
     1.0000   1.0000   1.0000   1.0000   1.0000   1.0000   1.0000   1.0000
     1.0000   1.0000   1.0000   1.0000   1.0000   1.0000   1.0000   1.0000
     1.0000   1.0000   1.0000   1.0000   1.0000   1.0000   1.0000   1.0000
     1.0000   1.0000   1.0000   1.0000   1.0000   1.0000   1.0000   1.0000
     1.0000   1.0000   1.0000   1.0000   1.0000   1.0000   1.0000   1.0000
     1.0000   1.0000   1.0000   1.0000   1.0000   1.0000   1.0000   1.0000
     1.0000   1.0000   1.0000   1.0000   1.0000   1.0000   1.0000   1.0000
     0.0000   0.0000   0.0000   0.0000   0.0000   0.0000   0.0000   0.0000
     0.0000   0.0000   0.0000   0.0000   0.0000   0.0000   0.0000   0.0000
     0.0000   0.0000   0.0000   0.0000   0.0000   0.0000   0.0000   0.0000
     0.0000   0.0000   0.0000   0.0000   0.0000   0.0000   0.0000   0.0000
     0.0000   0.0000   0.0000   0.0000   0.0000   0.0000   0.0000   0.0000
     0.0000   0.0000   0.0000   0.0000

     highest occupied, lowest unoccupied level (ev):     3.1557    4.4145

!    total energy              =   -1215.55711464 Ry
     estimated scf accuracy    <       0.00000070 Ry

     The total energy is the sum of the following terms:
     one-electron contribution =    -409.58521966 Ry
     hartree contribution      =     281.31568310 Ry
     xc contribution           =    -390.16226198 Ry
     ewald contribution        =    -697.12531609 Ry

     convergence has been achieved in  17 iterations

     Writing all to output data dir ./out_soc/CsPbCl3_soc.save/ :
     XML data file, charge density, pseudopotentials, collected wavefunctions

     General routines

     Parallel routines

   This run was terminated on:  18:59:42  15Apr2025

   JOB DONE.